variable lv1 index  300    
label loop1
variable lv2 index  4000   
label loop2

variable  VT  equal 1500    

variable  Rate  equal 0.1
variable  nid1  string  C2-H0.1-300K-200
variable  nid2  string  H
variable  Tid  equal  ${lv1}
variable  totaddNum equal 200

variable  infilename string  transition.in

clear
variable  runTime equal 8  
variable  runStep1 equal 1000000  
variable  runStepUpT equal round((${lv2}-${lv1})/${VT}/0.1*${runStep1})
variable  runStepHT equal ${runTime}/0.1*${runStep1}-${runStepUpT}

variable        dt equal 0.1 
variable        T  equal ${lv2}

variable        Rfid string ${nid1}
variable        Wfid string ${nid1}-${T}K-${VT}Kperns

units           real  
dimension       3
boundary         p p p 
atom_style      full
read_data       ../Datafile/${Rfid}.data 

group 1 type 1
group 2 type 2 
group soot union 1 2
group 3 subtract all soot
group mv union 1 3

###Pair

pair_style reax/c NULL safezone 2.6 mincap 1000   
pair_coeff * *  ../potential_file/CHO2016.ff C C C H
fix pa all qeq/reax 1 0.0 10.0 1.0e-5 reax/c

neigh_modify delay 0 every 1 check yes page 500000 one 50000
timestep     ${dt}
run 0

thermo       1000
thermo_style custom step temp pe etotal ke vol

thermo_modify lost ignore

dump        1  all xyz 10000 ../XYZ/${Wfid}.xyz
dump_modify 1  element O O C H
dump_modify 1  first yes

dump        2  3 xyz 10000 ../XYZ2/${Wfid}.xyz
dump_modify 2  element O O C H
dump_modify 2  first yes

#compute     E1 soot group/group 3 pair yes
compute     PE all pe
compute     Tav all temp
compute     T1 1 temp
compute     Tm 3 temp
fix         E1 all  ave/time 50 200 10000  c_PE c_Tav c_T1 c_Tm ave running &
  file ../OUT/${Wfid}.data mode scalar 

run 0
velocity all create ${lv1} 102486 mom yes rot yes dist gaussian

fix mv all nvt temp ${lv1} ${T} $(100*dt) 

variable time equal step

#variable E_f_3 equal f_3
#variable E_f_4 equal f_4
variable E_f_mv equal f_mv

variable T_all equal temp

fix 48121 all print 10000 "${time} ${E_f_mv}  ${T_all}" screen no file ../OUT/${Wfid}-fix_nvt.data

run ${runStepUpT}

unfix mv

fix mv all nvt temp ${T} ${T} $(100*dt) 

run ${runStepHT}

unfix mv

write_data  ../remodeldata/${Wfid}.data

clear
next lv2
jump ${infilename} loop2

clear
next lv1
jump ${infilename} loop1
