
variable lv1 index  200      
label loop1
variable lv2 index  300     
label loop2

variable  nid1      index  C2
variable  nid2      index  H
variable  baseName index  C60-lmp.data  

variable  infilename index  main.in

variable  space      equal 25.0
variable  addregion  equal 8.0
variable  Rate  equal 0.1
variable  addNum equal 10
variable  addNum_H equal ${addNum}*${Rate}
variable  atNumMol_C2  equal 2
variable  addid  equal 0   

jump mdmodel.in model_0

label mdstart
clear
variable  runStep equal 10000000

variable        dt equal 0.1 
variable        T  equal ${lv2}
variable        totaddNum equal ${lv1}

units           real  
dimension       3
boundary         p p p 
atom_style      full
read_data       ../remodeldata/${nid1}-${nid2}${Rate}-${T}K-${admols}.data  

group 1 type 1
group 2 type 2  
group soot union 1 2
group 3 subtract all soot
group mv union 1 3

pair_style reax/c NULL safezone 2.6 mincap 1000    # hybrid   lj/cut 10.0
pair_coeff * *  ../potential_file/CHO2016.ff C C C H
fix pa all qeq/reax 1 0.0 10.0 1.0e-5 reax/c

neigh_modify delay 0 every 1 check yes page 500000 one 50000
timestep     ${dt}
run 0

thermo       2000
thermo_style custom step temp pe etotal ke vol

thermo_modify lost ignore

dump        1  all xyz 20000 ../XYZ/${nid1}-${nid2}${Rate}-${T}K-${admols}.xyz
dump_modify 1  element O  O C  H
dump_modify 1  first yes

dump        2  3 xyz 20000 ../XYZ2/${nid1}-${nid2}${Rate}-${T}K-${admols}.xyz
dump_modify 2  element O  O C  H
dump_modify 2  first yes

#compute     E1 soot group/group 3 pair yes
compute     PE all pe
compute     Tav all temp
compute     T1 1 temp
compute     Tm 3 temp
fix         E1 all  ave/time 2 10000 20000  c_PE c_Tav c_T1 c_Tm ave running &
  file ../OUT/${nid1}-${nid2}${Rate}-${T}K-${admols}.data mode scalar 

run 0
velocity 1 create ${T} 102486 mom yes rot yes dist gaussian
velocity 3 create ${T} 102486 mom yes rot yes dist gaussian

fix 3 1 nvt temp ${T} ${T} 10 
fix 4 3 nvt temp ${T} ${T} 10 

variable time equal step
variable E_f_3 equal f_3
variable E_f_4 equal f_4

fix 48121 all print 20000 "${time} ${E_f_3} ${E_f_4}" screen no file ../OUT/${nid1}-${nid2}${Rate}-${T}K-${admols}-fix_nvt.data

run ${runStep}
unfix 3
unfix 4
unfix 48121

write_data  ../remodeldata/${nid1}-${nid2}${Rate}-${T}K-${admols}.data

jump mdmodel.in model_1

label mdend

clear
next lv2
jump ${infilename} loop2

clear
next lv1
jump ${infilename} loop1
